wr=44;
nProviders=10;

cost_worker=[ 56 38 38 39 20 19 60 52 53 15 ];
available_workers=[ 26 34 39 18 31 41 49 32 18 37 ];
cost_contract=[ 2510 1805 3378 1008 1000 3302 2304 2344 2319 2708 ];
country=[ 3 7 5 4 6 7 5 3 7 7 ];
cost_1=5;
cost_2=7;
cost_3=150;
